<number of tasks>
250

<cycle time>
1000

<order strength>
0.895


<task times>
1 89
2 63
3 118
4 133
5 135
6 125
7 70
8 273
9 20
10 115
11 112
12 137
13 252
14 176
15 205
16 103
17 124
18 143
19 248
20 152
21 37
22 33
23 82
24 149
25 209
26 162
27 54
28 67
29 215
30 182
31 43
32 164
33 112
34 184
35 37
36 122
37 169
38 154
39 264
40 39
41 126
42 169
43 109
44 84
45 144
46 66
47 232
48 124
49 39
50 54
51 200
52 64
53 59
54 22
55 178
56 209
57 155
58 157
59 79
60 350
61 32
62 87
63 184
64 72
65 80
66 291
67 39
68 174
69 173
70 137
71 267
72 134
73 91
74 110
75 218
76 185
77 76
78 205
79 135
80 34
81 25
82 44
83 304
84 50
85 143
86 136
87 50
88 164
89 185
90 101
91 80
92 193
93 96
94 94
95 299
96 135
97 53
98 61
99 114
100 128
101 264
102 114
103 137
104 324
105 477
106 62
107 101
108 88
109 60
110 128
111 25
112 41
113 115
114 190
115 113
116 148
117 26
118 28
119 67
120 44
121 82
122 221
123 285
124 172
125 162
126 240
127 238
128 39
129 221
130 104
131 94
132 223
133 235
134 189
135 171
136 162
137 82
138 239
139 77
140 36
141 72
142 174
143 139
144 136
145 283
146 109
147 300
148 140
149 80
150 93
151 254
152 188
153 90
154 165
155 239
156 92
157 116
158 95
159 177
160 38
161 226
162 101
163 37
164 150
165 46
166 89
167 247
168 76
169 132
170 193
171 143
172 207
173 346
174 106
175 104
176 232
177 221
178 160
179 115
180 133
181 111
182 87
183 87
184 71
185 156
186 44
187 35
188 164
189 139
190 222
191 142
192 191
193 78
194 30
195 55
196 53
197 61
198 46
199 146
200 210
201 39
202 27
203 176
204 56
205 114
206 23
207 191
208 237
209 159
210 294
211 238
212 107
213 191
214 31
215 175
216 151
217 140
218 168
219 27
220 35
221 148
222 173
223 142
224 197
225 177
226 122
227 148
228 293
229 133
230 46
231 205
232 23
233 97
234 44
235 100
236 150
237 83
238 26
239 86
240 73
241 107
242 181
243 23
244 258
245 222
246 29
247 191
248 83
249 206
250 44

<precedence relations>
1,6
1,7
1,8
2,4
2,5
2,6
2,7
2,8
3,4
3,5
3,6
3,7
3,8
4,9
4,10
4,14
4,15
5,9
5,13
5,15
6,9
6,10
6,11
6,15
7,9
7,10
7,11
7,12
7,13
7,14
7,15
8,51
8,55
9,16
9,17
9,18
10,16
10,17
10,18
11,16
11,17
11,18
12,16
12,17
12,18
13,16
13,17
13,18
14,16
14,17
14,18
15,16
15,17
15,18
16,19
16,20
16,21
16,22
17,19
17,20
17,21
17,22
18,19
18,20
18,21
18,22
19,23
19,24
19,25
19,26
20,23
20,24
20,25
20,26
21,23
21,24
21,25
21,26
22,23
22,24
22,25
22,26
23,27
23,28
23,29
23,30
23,31
24,27
24,28
24,29
24,30
24,31
25,27
25,28
25,29
25,30
25,31
26,27
26,28
26,29
26,30
26,31
27,32
27,33
27,34
27,35
28,32
28,33
28,34
28,35
29,32
29,33
29,34
29,35
30,32
30,33
30,34
30,35
31,32
31,33
31,34
31,35
32,36
32,37
32,38
32,39
32,40
32,41
33,36
33,37
33,38
33,39
33,40
33,41
34,36
34,37
34,38
34,39
34,40
34,41
35,36
35,37
35,38
35,39
35,40
35,41
36,42
36,43
36,44
36,45
36,46
37,42
37,43
37,44
37,45
37,46
38,42
38,43
38,44
38,45
38,46
39,42
39,43
39,44
39,45
39,46
40,42
40,43
40,44
40,45
40,46
41,42
41,43
41,44
41,45
41,46
42,47
42,48
42,49
42,50
43,47
43,48
43,49
43,50
44,47
44,48
44,49
44,50
45,47
45,48
45,49
46,47
46,48
46,49
46,50
47,51
47,52
47,53
47,59
48,51
49,53
49,55
50,51
50,54
50,55
51,56
51,57
51,58
51,60
52,56
53,56
53,57
53,58
53,60
54,56
54,57
54,58
54,59
54,60
55,56
55,57
55,58
55,59
55,60
56,61
56,62
56,63
56,64
56,65
57,61
57,62
57,63
57,64
57,65
58,61
58,62
58,63
58,64
58,65
59,61
59,62
59,63
59,64
59,65
60,61
60,62
60,64
60,65
61,72
62,67
62,68
62,69
63,66
63,67
63,68
63,69
64,66
64,67
64,68
64,69
65,66
65,67
65,68
65,69
66,70
66,71
66,72
66,73
66,74
67,70
67,71
67,72
67,73
67,74
68,70
68,71
68,72
68,73
68,74
69,70
69,71
69,72
69,73
69,74
70,75
70,76
70,77
70,78
70,79
70,80
71,75
71,76
71,77
71,78
71,79
71,80
72,75
72,76
72,77
72,78
72,79
72,80
73,75
73,76
73,77
73,78
73,79
73,80
74,75
74,76
74,77
74,78
74,79
74,80
75,81
75,82
75,83
75,84
75,85
76,81
76,82
76,83
76,84
76,85
77,81
77,82
77,83
77,84
77,85
78,81
78,82
78,83
78,84
78,85
79,81
79,82
79,83
79,84
80,81
80,82
80,83
80,84
80,85
81,86
81,87
81,88
82,86
82,87
82,88
83,86
83,87
84,88
85,86
85,87
85,88
86,89
86,90
86,91
87,89
87,90
87,91
88,89
88,90
88,91
89,92
89,93
89,94
89,95
89,96
90,92
90,93
90,94
90,96
91,93
91,95
91,115
91,124
92,98
93,97
94,97
94,119
95,97
96,97
96,99
96,100
96,101
97,116
98,102
98,110
99,102
99,110
100,102
100,103
100,104
101,102
101,103
101,104
102,105
102,106
102,107
102,111
103,105
103,106
103,107
103,108
103,109
103,110
103,111
104,105
104,106
104,107
104,108
104,109
105,114
105,115
105,116
106,112
107,112
107,113
107,114
107,116
108,112
109,126
110,112
110,116
111,112
111,113
112,117
112,118
112,119
112,120
112,121
113,117
114,121
115,118
116,117
116,118
116,120
116,125
117,122
117,123
118,122
119,122
119,123
119,124
120,123
121,125
122,126
122,127
123,126
123,127
124,126
124,127
125,126
125,127
126,128
127,128
127,129
127,130
127,131
128,134
129,132
129,133
129,134
130,132
131,133
131,182
132,135
132,136
133,183
133,214
134,137
134,138
135,139
135,143
136,139
136,141
136,142
137,168
137,169
137,172
138,139
138,140
138,141
138,142
138,143
138,144
139,162
139,168
139,177
140,145
140,156
140,157
141,161
141,164
142,145
142,146
143,145
144,191
145,149
145,151
145,153
146,147
146,148
146,149
146,150
146,151
146,152
147,154
148,156
148,158
148,172
149,154
149,155
149,160
149,162
150,154
150,155
150,157
151,203
152,181
152,218
153,165
153,173
154,158
154,161
155,158
155,211
156,209
157,159
157,160
157,162
157,175
157,177
158,163
158,164
159,163
159,164
159,168
159,169
160,169
161,163
161,165
162,169
162,186
163,166
163,167
163,184
164,166
164,167
164,207
165,168
165,169
165,170
165,171
166,173
166,198
166,230
166,244
168,174
169,184
170,172
170,198
171,172
172,175
172,177
172,178
173,206
174,176
174,178
174,179
175,249
176,180
176,182
177,191
177,220
178,181
178,215
180,184
180,197
181,183
181,186
181,220
182,185
182,199
183,192
184,191
185,188
185,189
185,201
185,203
186,187
186,190
186,191
187,200
187,212
188,202
189,193
189,209
190,199
191,192
192,194
192,195
192,199
193,196
193,197
193,198
193,200
194,201
195,203
195,229
195,231
197,204
197,213
198,218
199,201
199,202
200,223
201,221
201,244
202,207
202,210
203,223
203,236
204,205
204,206
204,219
205,208
205,210
205,211
206,212
206,223
206,243
207,209
207,224
207,225
208,227
209,213
210,217
211,214
211,215
211,216
213,217
213,219
213,222
213,223
214,220
214,229
215,218
216,221
216,228
216,229
216,234
217,226
218,223
218,224
220,225
221,222
222,230
222,247
223,246
224,228
224,231
226,227
226,229
227,233
227,235
228,246
231,232
231,234
233,236
233,238
233,239
234,237
235,240
236,243
236,244
237,245
237,250
238,241
238,246
239,247
240,242
241,247
243,247
244,250
245,247
245,248
246,249

<end>
